90 362787
30 32 28 12 62 84 44 60 75 86 66 21 87 56 18 40 52 57 41 24 17 1 83 43 65 82 35 15 74 54 49 3 34 13 37 72 33 53 27 42 55 71 63 81 7 78 58 50 23 10 79 73 90 39 80 16 8 64 31 19 36 38 45 5 76 85 89 46 51 47 11 25 9 26 67 77 2 59 20 6 88 29 68 14 70 69 4 48 22 61 
